<?xml version="1.0" encoding="UTF-8"?><osil xmlns="os.optimizationservices.org" xmlns:xsi="http://www.w3.org/2001/XMLSchema-instance" xsi:schemaLocation="os.optimizationservices.org http://www.optimizationservices.org/schemas/2.0/OSiL.xsd"><instanceHeader><name>synthes1</name></instanceHeader><instanceData><variables numberOfVariables="6"><var name="x1" ub="2"/><var name="x2" ub="2"/><var name="x3" ub="1"/><var name="b4" type="B" ub="1"/><var name="b5" type="B" ub="1"/><var name="b6" type="B" ub="1"/></variables><objectives><obj maxOrMin="min" constant="10" name="defObj_objvar" numberOfObjCoef="4"><coef idx="2">-7</coef><coef idx="3">5</coef><coef idx="4">6</coef><coef idx="5">8</coef></obj></objectives><constraints numberOfConstraints="6"><con name="e2" lb="0"/><con name="e3" lb="-2"/><con name="e4" ub="0"/><con name="e5" ub="0"/><con name="e6" ub="0"/><con name="e7" ub="1"/></constraints><linearConstraintCoefficients numberOfValues="12"><start><el>0</el><el mult="4" incr="2">1</el><el>10</el><el>12</el></start><colIdx><el mult="2">2</el><el>5</el><el>0</el><el mult="2">1</el><el>3</el><el>0</el><el>1</el><el>4</el><el>3</el><el>4</el></colIdx><value><el>-.8</el><el>-1</el><el>-2</el><el>-1</el><el mult="2">1</el><el>-2</el><el>1</el><el>-1</el><el>-2</el><el mult="2">1</el></value></linearConstraintCoefficients><nonlinearExpressions numberOfNonlinearExpressions="3"><nl idx="-1"><sum><product><ln><sum><number value="1"/><variable idx="1"/></sum></ln><number value="-18"/></product><product><ln><sum><number value="1"/><variable idx="0"/><variable idx="1" coef="-1"/></sum></ln><number value="-19.2"/></product><variable idx="0" coef="10"/></sum></nl><nl idx="0"><sum><product><ln><sum><number value="1"/><variable idx="1"/></sum></ln><number value=".8"/></product><product><ln><sum><number value="1"/><variable idx="0"/><variable idx="1" coef="-1"/></sum></ln><number value=".96"/></product></sum></nl><nl idx="1"><sum><ln><sum><number value="1"/><variable idx="1"/></sum></ln><product><ln><sum><number value="1"/><variable idx="0"/><variable idx="1" coef="-1"/></sum></ln><number value="1.2"/></product></sum></nl></nonlinearExpressions></instanceData></osil>